

n=20;

m=10;
 			

17	53	25	15	49	48	27	38	33	15	55	35	22	22	18	38	53	64
31	18	32	22	30	38	46	45	56	25	34	13	11	57	60	44	4	11
52	54	61	59	46	11	50	20	4	1	36	31	45	56	42	3	64	47
24	9	10	56	59	39	13	11	62	18	22	49	33	49	56	42	46	21
65	57	40	63	62	63	27	40	38	35	45	21	60	60	28	18	58	55
22	62	56	42	57	55	58	35	63	27	6	29	19	27	34	43	30	58
6	43	61	55	33	57	45	23	40	20	23	8	7	60	17	4	27	46
46	18	22	33	49	30	17	49	17	33	29	26	53	40	57	58	59	32
46	51	6	1	58	49	33	9	43	1	3	13	46	2	54	29	17	3
65	57	40	63	62	63	27	40	38	35	45	21	60	60	28	18	58	55


 
